(set-info :category "industrial")
(set-info :status sat)
(declare-fun x00 () (_ BitVec 8))
(declare-fun x01 () (_ BitVec 8))
(declare-fun x04 () (_ BitVec 8))
(declare-fun x06 () (_ BitVec 8))
(declare-fun x10 () (_ BitVec 8))
(declare-fun x13 () (_ BitVec 8))
(declare-fun x14 () (_ BitVec 8))
(declare-fun x15 () (_ BitVec 8))
(declare-fun x17 () (_ BitVec 8))
(declare-fun x20 () (_ BitVec 8))
(declare-fun x21 () (_ BitVec 8))
(declare-fun x22 () (_ BitVec 8))
(declare-fun x24 () (_ BitVec 8))
(declare-fun x25 () (_ BitVec 8))
(declare-fun x26 () (_ BitVec 8))
(declare-fun x33 () (_ BitVec 8))
(declare-fun x34 () (_ BitVec 8))
(declare-fun x35 () (_ BitVec 8))
(declare-fun x36 () (_ BitVec 8))
(declare-fun x38 () (_ BitVec 8))
(declare-fun x40 () (_ BitVec 8))
(declare-fun x41 () (_ BitVec 8))
(declare-fun x42 () (_ BitVec 8))
(declare-fun x43 () (_ BitVec 8))
(declare-fun x44 () (_ BitVec 8))
(declare-fun x46 () (_ BitVec 8))
(declare-fun x48 () (_ BitVec 8))
(declare-fun x51 () (_ BitVec 8))
(declare-fun x54 () (_ BitVec 8))
(declare-fun x56 () (_ BitVec 8))
(declare-fun x57 () (_ BitVec 8))
(declare-fun x60 () (_ BitVec 8))
(declare-fun x64 () (_ BitVec 8))
(declare-fun x67 () (_ BitVec 8))
(declare-fun x68 () (_ BitVec 8))
(declare-fun x72 () (_ BitVec 8))
(declare-fun x75 () (_ BitVec 8))
(declare-fun x76 () (_ BitVec 8))
(declare-fun x77 () (_ BitVec 8))
(declare-fun x78 () (_ BitVec 8))
(declare-fun x80 () (_ BitVec 8))
(declare-fun x81 () (_ BitVec 8))
(declare-fun x82 () (_ BitVec 8))
(declare-fun x83 () (_ BitVec 8))
(declare-fun x85 () (_ BitVec 8))
(declare-fun x86 () (_ BitVec 8))
(declare-fun x87 () (_ BitVec 8))
(assert (bvult x00 (_ bv9 8)))
(assert (bvult x01 (_ bv9 8)))
(assert (bvult x04 (_ bv9 8)))
(assert (bvult x06 (_ bv9 8)))
(assert (bvult x10 (_ bv9 8)))
(assert (bvult x13 (_ bv9 8)))
(assert (bvult x14 (_ bv9 8)))
(assert (bvult x15 (_ bv9 8)))
(assert (bvult x17 (_ bv9 8)))
(assert (bvult x20 (_ bv9 8)))
(assert (bvult x21 (_ bv9 8)))
(assert (bvult x22 (_ bv9 8)))
(assert (bvult x24 (_ bv9 8)))
(assert (bvult x25 (_ bv9 8)))
(assert (bvult x26 (_ bv9 8)))
(assert (bvult x33 (_ bv9 8)))
(assert (bvult x34 (_ bv9 8)))
(assert (bvult x35 (_ bv9 8)))
(assert (bvult x36 (_ bv9 8)))
(assert (bvult x38 (_ bv9 8)))
(assert (bvult x40 (_ bv9 8)))
(assert (bvult x41 (_ bv9 8)))
(assert (bvult x42 (_ bv9 8)))
(assert (bvult x43 (_ bv9 8)))
(assert (bvult x44 (_ bv9 8)))
(assert (bvult x46 (_ bv9 8)))
(assert (bvult x48 (_ bv9 8)))
(assert (bvult x51 (_ bv9 8)))
(assert (bvult x54 (_ bv9 8)))
(assert (bvult x56 (_ bv9 8)))
(assert (bvult x57 (_ bv9 8)))
(assert (bvult x60 (_ bv9 8)))
(assert (bvult x64 (_ bv9 8)))
(assert (bvult x67 (_ bv9 8)))
(assert (bvult x68 (_ bv9 8)))
(assert (bvult x72 (_ bv9 8)))
(assert (bvult x75 (_ bv9 8)))
(assert (bvult x76 (_ bv9 8)))
(assert (bvult x77 (_ bv9 8)))
(assert (bvult x78 (_ bv9 8)))
(assert (bvult x80 (_ bv9 8)))
(assert (bvult x81 (_ bv9 8)))
(assert (bvult x82 (_ bv9 8)))
(assert (bvult x83 (_ bv9 8)))
(assert (bvult x85 (_ bv9 8)))
(assert (bvult x86 (_ bv9 8)))
(assert (bvult x87 (_ bv9 8)))
(assert (not (= x00 x01)))
(assert (not (= x00 (_ bv4 8))))
(assert (not (= x00 (_ bv6 8))))
(assert (not (= x00 x04)))
(assert (not (= x00 (_ bv8 8))))
(assert (not (= x00 x06)))
(assert (not (= x00 (_ bv1 8))))
(assert (not (= x00 (_ bv7 8))))
(assert (not (= x01 (_ bv4 8))))
(assert (not (= x01 (_ bv6 8))))
(assert (not (= x01 x04)))
(assert (not (= x01 (_ bv8 8))))
(assert (not (= x01 x06)))
(assert (not (= x01 (_ bv1 8))))
(assert (not (= x01 (_ bv7 8))))
(assert (not (= (_ bv4 8) (_ bv6 8))))
(assert (not (= (_ bv4 8) x04)))
(assert (not (= (_ bv4 8) (_ bv8 8))))
(assert (not (= (_ bv4 8) x06)))
(assert (not (= (_ bv4 8) (_ bv1 8))))
(assert (not (= (_ bv4 8) (_ bv7 8))))
(assert (not (= (_ bv6 8) x04)))
(assert (not (= (_ bv6 8) (_ bv8 8))))
(assert (not (= (_ bv6 8) x06)))
(assert (not (= (_ bv6 8) (_ bv1 8))))
(assert (not (= (_ bv6 8) (_ bv7 8))))
(assert (not (= x04 (_ bv8 8))))
(assert (not (= x04 x06)))
(assert (not (= x04 (_ bv1 8))))
(assert (not (= x04 (_ bv7 8))))
(assert (not (= (_ bv8 8) x06)))
(assert (not (= (_ bv8 8) (_ bv1 8))))
(assert (not (= (_ bv8 8) (_ bv7 8))))
(assert (not (= x06 (_ bv1 8))))
(assert (not (= x06 (_ bv7 8))))
(assert (not (= (_ bv1 8) (_ bv7 8))))
(assert (not (= x10 (_ bv6 8))))
(assert (not (= x10 (_ bv1 8))))
(assert (not (= x10 x13)))
(assert (not (= x10 x14)))
(assert (not (= x10 x15)))
(assert (not (= x10 (_ bv5 8))))
(assert (not (= x10 x17)))
(assert (not (= x10 (_ bv2 8))))
(assert (not (= (_ bv6 8) (_ bv1 8))))
(assert (not (= (_ bv6 8) x13)))
(assert (not (= (_ bv6 8) x14)))
(assert (not (= (_ bv6 8) x15)))
(assert (not (= (_ bv6 8) (_ bv5 8))))
(assert (not (= (_ bv6 8) x17)))
(assert (not (= (_ bv6 8) (_ bv2 8))))
(assert (not (= (_ bv1 8) x13)))
(assert (not (= (_ bv1 8) x14)))
(assert (not (= (_ bv1 8) x15)))
(assert (not (= (_ bv1 8) (_ bv5 8))))
(assert (not (= (_ bv1 8) x17)))
(assert (not (= (_ bv1 8) (_ bv2 8))))
(assert (not (= x13 x14)))
(assert (not (= x13 x15)))
(assert (not (= x13 (_ bv5 8))))
(assert (not (= x13 x17)))
(assert (not (= x13 (_ bv2 8))))
(assert (not (= x14 x15)))
(assert (not (= x14 (_ bv5 8))))
(assert (not (= x14 x17)))
(assert (not (= x14 (_ bv2 8))))
(assert (not (= x15 (_ bv5 8))))
(assert (not (= x15 x17)))
(assert (not (= x15 (_ bv2 8))))
(assert (not (= (_ bv5 8) x17)))
(assert (not (= (_ bv5 8) (_ bv2 8))))
(assert (not (= x17 (_ bv2 8))))
(assert (not (= x20 x21)))
(assert (not (= x20 x22)))
(assert (not (= x20 (_ bv3 8))))
(assert (not (= x20 x24)))
(assert (not (= x20 x25)))
(assert (not (= x20 x26)))
(assert (not (= x20 (_ bv4 8))))
(assert (not (= x20 (_ bv9 8))))
(assert (not (= x21 x22)))
(assert (not (= x21 (_ bv3 8))))
(assert (not (= x21 x24)))
(assert (not (= x21 x25)))
(assert (not (= x21 x26)))
(assert (not (= x21 (_ bv4 8))))
(assert (not (= x21 (_ bv9 8))))
(assert (not (= x22 (_ bv3 8))))
(assert (not (= x22 x24)))
(assert (not (= x22 x25)))
(assert (not (= x22 x26)))
(assert (not (= x22 (_ bv4 8))))
(assert (not (= x22 (_ bv9 8))))
(assert (not (= (_ bv3 8) x24)))
(assert (not (= (_ bv3 8) x25)))
(assert (not (= (_ bv3 8) x26)))
(assert (not (= (_ bv3 8) (_ bv4 8))))
(assert (not (= (_ bv3 8) (_ bv9 8))))
(assert (not (= x24 x25)))
(assert (not (= x24 x26)))
(assert (not (= x24 (_ bv4 8))))
(assert (not (= x24 (_ bv9 8))))
(assert (not (= x25 x26)))
(assert (not (= x25 (_ bv4 8))))
(assert (not (= x25 (_ bv9 8))))
(assert (not (= x26 (_ bv4 8))))
(assert (not (= x26 (_ bv9 8))))
(assert (not (= (_ bv4 8) (_ bv9 8))))
(assert (not (= (_ bv8 8) (_ bv4 8))))
(assert (not (= (_ bv8 8) (_ bv7 8))))
(assert (not (= (_ bv8 8) x33)))
(assert (not (= (_ bv8 8) x34)))
(assert (not (= (_ bv8 8) x35)))
(assert (not (= (_ bv8 8) x36)))
(assert (not (= (_ bv8 8) (_ bv2 8))))
(assert (not (= (_ bv8 8) x38)))
(assert (not (= (_ bv4 8) (_ bv7 8))))
(assert (not (= (_ bv4 8) x33)))
(assert (not (= (_ bv4 8) x34)))
(assert (not (= (_ bv4 8) x35)))
(assert (not (= (_ bv4 8) x36)))
(assert (not (= (_ bv4 8) (_ bv2 8))))
(assert (not (= (_ bv4 8) x38)))
(assert (not (= (_ bv7 8) x33)))
(assert (not (= (_ bv7 8) x34)))
(assert (not (= (_ bv7 8) x35)))
(assert (not (= (_ bv7 8) x36)))
(assert (not (= (_ bv7 8) (_ bv2 8))))
(assert (not (= (_ bv7 8) x38)))
(assert (not (= x33 x34)))
(assert (not (= x33 x35)))
(assert (not (= x33 x36)))
(assert (not (= x33 (_ bv2 8))))
(assert (not (= x33 x38)))
(assert (not (= x34 x35)))
(assert (not (= x34 x36)))
(assert (not (= x34 (_ bv2 8))))
(assert (not (= x34 x38)))
(assert (not (= x35 x36)))
(assert (not (= x35 (_ bv2 8))))
(assert (not (= x35 x38)))
(assert (not (= x36 (_ bv2 8))))
(assert (not (= x36 x38)))
(assert (not (= (_ bv2 8) x38)))
(assert (not (= x40 x41)))
(assert (not (= x40 x42)))
(assert (not (= x40 x43)))
(assert (not (= x40 x44)))
(assert (not (= x40 (_ bv5 8))))
(assert (not (= x40 x46)))
(assert (not (= x40 (_ bv3 8))))
(assert (not (= x40 x48)))
(assert (not (= x41 x42)))
(assert (not (= x41 x43)))
(assert (not (= x41 x44)))
(assert (not (= x41 (_ bv5 8))))
(assert (not (= x41 x46)))
(assert (not (= x41 (_ bv3 8))))
(assert (not (= x41 x48)))
(assert (not (= x42 x43)))
(assert (not (= x42 x44)))
(assert (not (= x42 (_ bv5 8))))
(assert (not (= x42 x46)))
(assert (not (= x42 (_ bv3 8))))
(assert (not (= x42 x48)))
(assert (not (= x43 x44)))
(assert (not (= x43 (_ bv5 8))))
(assert (not (= x43 x46)))
(assert (not (= x43 (_ bv3 8))))
(assert (not (= x43 x48)))
(assert (not (= x44 (_ bv5 8))))
(assert (not (= x44 x46)))
(assert (not (= x44 (_ bv3 8))))
(assert (not (= x44 x48)))
(assert (not (= (_ bv5 8) x46)))
(assert (not (= (_ bv5 8) (_ bv3 8))))
(assert (not (= (_ bv5 8) x48)))
(assert (not (= x46 (_ bv3 8))))
(assert (not (= x46 x48)))
(assert (not (= (_ bv3 8) x48)))
(assert (not (= (_ bv5 8) x51)))
(assert (not (= (_ bv5 8) (_ bv2 8))))
(assert (not (= (_ bv5 8) (_ bv1 8))))
(assert (not (= (_ bv5 8) x54)))
(assert (not (= (_ bv5 8) (_ bv7 8))))
(assert (not (= (_ bv5 8) x56)))
(assert (not (= (_ bv5 8) x57)))
(assert (not (= (_ bv5 8) (_ bv4 8))))
(assert (not (= x51 (_ bv2 8))))
(assert (not (= x51 (_ bv1 8))))
(assert (not (= x51 x54)))
(assert (not (= x51 (_ bv7 8))))
(assert (not (= x51 x56)))
(assert (not (= x51 x57)))
(assert (not (= x51 (_ bv4 8))))
(assert (not (= (_ bv2 8) (_ bv1 8))))
(assert (not (= (_ bv2 8) x54)))
(assert (not (= (_ bv2 8) (_ bv7 8))))
(assert (not (= (_ bv2 8) x56)))
(assert (not (= (_ bv2 8) x57)))
(assert (not (= (_ bv2 8) (_ bv4 8))))
(assert (not (= (_ bv1 8) x54)))
(assert (not (= (_ bv1 8) (_ bv7 8))))
(assert (not (= (_ bv1 8) x56)))
(assert (not (= (_ bv1 8) x57)))
(assert (not (= (_ bv1 8) (_ bv4 8))))
(assert (not (= x54 (_ bv7 8))))
(assert (not (= x54 x56)))
(assert (not (= x54 x57)))
(assert (not (= x54 (_ bv4 8))))
(assert (not (= (_ bv7 8) x56)))
(assert (not (= (_ bv7 8) x57)))
(assert (not (= (_ bv7 8) (_ bv4 8))))
(assert (not (= x56 x57)))
(assert (not (= x56 (_ bv4 8))))
(assert (not (= x57 (_ bv4 8))))
(assert (not (= x60 (_ bv9 8))))
(assert (not (= x60 (_ bv8 8))))
(assert (not (= x60 (_ bv7 8))))
(assert (not (= x60 x64)))
(assert (not (= x60 (_ bv6 8))))
(assert (not (= x60 (_ bv4 8))))
(assert (not (= x60 x67)))
(assert (not (= x60 x68)))
(assert (not (= (_ bv9 8) (_ bv8 8))))
(assert (not (= (_ bv9 8) (_ bv7 8))))
(assert (not (= (_ bv9 8) x64)))
(assert (not (= (_ bv9 8) (_ bv6 8))))
(assert (not (= (_ bv9 8) (_ bv4 8))))
(assert (not (= (_ bv9 8) x67)))
(assert (not (= (_ bv9 8) x68)))
(assert (not (= (_ bv8 8) (_ bv7 8))))
(assert (not (= (_ bv8 8) x64)))
(assert (not (= (_ bv8 8) (_ bv6 8))))
(assert (not (= (_ bv8 8) (_ bv4 8))))
(assert (not (= (_ bv8 8) x67)))
(assert (not (= (_ bv8 8) x68)))
(assert (not (= (_ bv7 8) x64)))
(assert (not (= (_ bv7 8) (_ bv6 8))))
(assert (not (= (_ bv7 8) (_ bv4 8))))
(assert (not (= (_ bv7 8) x67)))
(assert (not (= (_ bv7 8) x68)))
(assert (not (= x64 (_ bv6 8))))
(assert (not (= x64 (_ bv4 8))))
(assert (not (= x64 x67)))
(assert (not (= x64 x68)))
(assert (not (= (_ bv6 8) (_ bv4 8))))
(assert (not (= (_ bv6 8) x67)))
(assert (not (= (_ bv6 8) x68)))
(assert (not (= (_ bv4 8) x67)))
(assert (not (= (_ bv4 8) x68)))
(assert (not (= x67 x68)))
(assert (not (= (_ bv1 8) (_ bv5 8))))
(assert (not (= (_ bv1 8) x72)))
(assert (not (= (_ bv1 8) (_ bv8 8))))
(assert (not (= (_ bv1 8) (_ bv9 8))))
(assert (not (= (_ bv1 8) x75)))
(assert (not (= (_ bv1 8) x76)))
(assert (not (= (_ bv1 8) x77)))
(assert (not (= (_ bv1 8) x78)))
(assert (not (= (_ bv5 8) x72)))
(assert (not (= (_ bv5 8) (_ bv8 8))))
(assert (not (= (_ bv5 8) (_ bv9 8))))
(assert (not (= (_ bv5 8) x75)))
(assert (not (= (_ bv5 8) x76)))
(assert (not (= (_ bv5 8) x77)))
(assert (not (= (_ bv5 8) x78)))
(assert (not (= x72 (_ bv8 8))))
(assert (not (= x72 (_ bv9 8))))
(assert (not (= x72 x75)))
(assert (not (= x72 x76)))
(assert (not (= x72 x77)))
(assert (not (= x72 x78)))
(assert (not (= (_ bv8 8) (_ bv9 8))))
(assert (not (= (_ bv8 8) x75)))
(assert (not (= (_ bv8 8) x76)))
(assert (not (= (_ bv8 8) x77)))
(assert (not (= (_ bv8 8) x78)))
(assert (not (= (_ bv9 8) x75)))
(assert (not (= (_ bv9 8) x76)))
(assert (not (= (_ bv9 8) x77)))
(assert (not (= (_ bv9 8) x78)))
(assert (not (= x75 x76)))
(assert (not (= x75 x77)))
(assert (not (= x75 x78)))
(assert (not (= x76 x77)))
(assert (not (= x76 x78)))
(assert (not (= x77 x78)))
(assert (not (= x80 x81)))
(assert (not (= x80 x82)))
(assert (not (= x80 x83)))
(assert (not (= x80 (_ bv2 8))))
(assert (not (= x80 x85)))
(assert (not (= x80 x86)))
(assert (not (= x80 x87)))
(assert (not (= x80 (_ bv6 8))))
(assert (not (= x81 x82)))
(assert (not (= x81 x83)))
(assert (not (= x81 (_ bv2 8))))
(assert (not (= x81 x85)))
(assert (not (= x81 x86)))
(assert (not (= x81 x87)))
(assert (not (= x81 (_ bv6 8))))
(assert (not (= x82 x83)))
(assert (not (= x82 (_ bv2 8))))
(assert (not (= x82 x85)))
(assert (not (= x82 x86)))
(assert (not (= x82 x87)))
(assert (not (= x82 (_ bv6 8))))
(assert (not (= x83 (_ bv2 8))))
(assert (not (= x83 x85)))
(assert (not (= x83 x86)))
(assert (not (= x83 x87)))
(assert (not (= x83 (_ bv6 8))))
(assert (not (= (_ bv2 8) x85)))
(assert (not (= (_ bv2 8) x86)))
(assert (not (= (_ bv2 8) x87)))
(assert (not (= (_ bv2 8) (_ bv6 8))))
(assert (not (= x85 x86)))
(assert (not (= x85 x87)))
(assert (not (= x85 (_ bv6 8))))
(assert (not (= x86 x87)))
(assert (not (= x86 (_ bv6 8))))
(assert (not (= x87 (_ bv6 8))))
(assert (not (= x00 x10)))
(assert (not (= x00 x20)))
(assert (not (= x00 (_ bv8 8))))
(assert (not (= x00 x40)))
(assert (not (= x00 (_ bv5 8))))
(assert (not (= x00 x60)))
(assert (not (= x00 (_ bv1 8))))
(assert (not (= x00 x80)))
(assert (not (= x10 x20)))
(assert (not (= x10 (_ bv8 8))))
(assert (not (= x10 x40)))
(assert (not (= x10 (_ bv5 8))))
(assert (not (= x10 x60)))
(assert (not (= x10 (_ bv1 8))))
(assert (not (= x10 x80)))
(assert (not (= x20 (_ bv8 8))))
(assert (not (= x20 x40)))
(assert (not (= x20 (_ bv5 8))))
(assert (not (= x20 x60)))
(assert (not (= x20 (_ bv1 8))))
(assert (not (= x20 x80)))
(assert (not (= (_ bv8 8) x40)))
(assert (not (= (_ bv8 8) (_ bv5 8))))
(assert (not (= (_ bv8 8) x60)))
(assert (not (= (_ bv8 8) (_ bv1 8))))
(assert (not (= (_ bv8 8) x80)))
(assert (not (= x40 (_ bv5 8))))
(assert (not (= x40 x60)))
(assert (not (= x40 (_ bv1 8))))
(assert (not (= x40 x80)))
(assert (not (= (_ bv5 8) x60)))
(assert (not (= (_ bv5 8) (_ bv1 8))))
(assert (not (= (_ bv5 8) x80)))
(assert (not (= x60 (_ bv1 8))))
(assert (not (= x60 x80)))
(assert (not (= (_ bv1 8) x80)))
(assert (not (= x01 (_ bv6 8))))
(assert (not (= x01 x21)))
(assert (not (= x01 (_ bv4 8))))
(assert (not (= x01 x41)))
(assert (not (= x01 x51)))
(assert (not (= x01 (_ bv9 8))))
(assert (not (= x01 (_ bv5 8))))
(assert (not (= x01 x81)))
(assert (not (= (_ bv6 8) x21)))
(assert (not (= (_ bv6 8) (_ bv4 8))))
(assert (not (= (_ bv6 8) x41)))
(assert (not (= (_ bv6 8) x51)))
(assert (not (= (_ bv6 8) (_ bv9 8))))
(assert (not (= (_ bv6 8) (_ bv5 8))))
(assert (not (= (_ bv6 8) x81)))
(assert (not (= x21 (_ bv4 8))))
(assert (not (= x21 x41)))
(assert (not (= x21 x51)))
(assert (not (= x21 (_ bv9 8))))
(assert (not (= x21 (_ bv5 8))))
(assert (not (= x21 x81)))
(assert (not (= (_ bv4 8) x41)))
(assert (not (= (_ bv4 8) x51)))
(assert (not (= (_ bv4 8) (_ bv9 8))))
(assert (not (= (_ bv4 8) (_ bv5 8))))
(assert (not (= (_ bv4 8) x81)))
(assert (not (= x41 x51)))
(assert (not (= x41 (_ bv9 8))))
(assert (not (= x41 (_ bv5 8))))
(assert (not (= x41 x81)))
(assert (not (= x51 (_ bv9 8))))
(assert (not (= x51 (_ bv5 8))))
(assert (not (= x51 x81)))
(assert (not (= (_ bv9 8) (_ bv5 8))))
(assert (not (= (_ bv9 8) x81)))
(assert (not (= (_ bv5 8) x81)))
(assert (not (= (_ bv4 8) (_ bv1 8))))
(assert (not (= (_ bv4 8) x22)))
(assert (not (= (_ bv4 8) (_ bv7 8))))
(assert (not (= (_ bv4 8) x42)))
(assert (not (= (_ bv4 8) (_ bv2 8))))
(assert (not (= (_ bv4 8) (_ bv8 8))))
(assert (not (= (_ bv4 8) x72)))
(assert (not (= (_ bv4 8) x82)))
(assert (not (= (_ bv1 8) x22)))
(assert (not (= (_ bv1 8) (_ bv7 8))))
(assert (not (= (_ bv1 8) x42)))
(assert (not (= (_ bv1 8) (_ bv2 8))))
(assert (not (= (_ bv1 8) (_ bv8 8))))
(assert (not (= (_ bv1 8) x72)))
(assert (not (= (_ bv1 8) x82)))
(assert (not (= x22 (_ bv7 8))))
(assert (not (= x22 x42)))
(assert (not (= x22 (_ bv2 8))))
(assert (not (= x22 (_ bv8 8))))
(assert (not (= x22 x72)))
(assert (not (= x22 x82)))
(assert (not (= (_ bv7 8) x42)))
(assert (not (= (_ bv7 8) (_ bv2 8))))
(assert (not (= (_ bv7 8) (_ bv8 8))))
(assert (not (= (_ bv7 8) x72)))
(assert (not (= (_ bv7 8) x82)))
(assert (not (= x42 (_ bv2 8))))
(assert (not (= x42 (_ bv8 8))))
(assert (not (= x42 x72)))
(assert (not (= x42 x82)))
(assert (not (= (_ bv2 8) (_ bv8 8))))
(assert (not (= (_ bv2 8) x72)))
(assert (not (= (_ bv2 8) x82)))
(assert (not (= (_ bv8 8) x72)))
(assert (not (= (_ bv8 8) x82)))
(assert (not (= x72 x82)))
(assert (not (= (_ bv6 8) x13)))
(assert (not (= (_ bv6 8) (_ bv3 8))))
(assert (not (= (_ bv6 8) x33)))
(assert (not (= (_ bv6 8) x43)))
(assert (not (= (_ bv6 8) (_ bv1 8))))
(assert (not (= (_ bv6 8) (_ bv7 8))))
(assert (not (= (_ bv6 8) (_ bv8 8))))
(assert (not (= (_ bv6 8) x83)))
(assert (not (= x13 (_ bv3 8))))
(assert (not (= x13 x33)))
(assert (not (= x13 x43)))
(assert (not (= x13 (_ bv1 8))))
(assert (not (= x13 (_ bv7 8))))
(assert (not (= x13 (_ bv8 8))))
(assert (not (= x13 x83)))
(assert (not (= (_ bv3 8) x33)))
(assert (not (= (_ bv3 8) x43)))
(assert (not (= (_ bv3 8) (_ bv1 8))))
(assert (not (= (_ bv3 8) (_ bv7 8))))
(assert (not (= (_ bv3 8) (_ bv8 8))))
(assert (not (= (_ bv3 8) x83)))
(assert (not (= x33 x43)))
(assert (not (= x33 (_ bv1 8))))
(assert (not (= x33 (_ bv7 8))))
(assert (not (= x33 (_ bv8 8))))
(assert (not (= x33 x83)))
(assert (not (= x43 (_ bv1 8))))
(assert (not (= x43 (_ bv7 8))))
(assert (not (= x43 (_ bv8 8))))
(assert (not (= x43 x83)))
(assert (not (= (_ bv1 8) (_ bv7 8))))
(assert (not (= (_ bv1 8) (_ bv8 8))))
(assert (not (= (_ bv1 8) x83)))
(assert (not (= (_ bv7 8) (_ bv8 8))))
(assert (not (= (_ bv7 8) x83)))
(assert (not (= (_ bv8 8) x83)))
(assert (not (= x04 x14)))
(assert (not (= x04 x24)))
(assert (not (= x04 x34)))
(assert (not (= x04 x44)))
(assert (not (= x04 x54)))
(assert (not (= x04 x64)))
(assert (not (= x04 (_ bv9 8))))
(assert (not (= x04 (_ bv2 8))))
(assert (not (= x14 x24)))
(assert (not (= x14 x34)))
(assert (not (= x14 x44)))
(assert (not (= x14 x54)))
(assert (not (= x14 x64)))
(assert (not (= x14 (_ bv9 8))))
(assert (not (= x14 (_ bv2 8))))
(assert (not (= x24 x34)))
(assert (not (= x24 x44)))
(assert (not (= x24 x54)))
(assert (not (= x24 x64)))
(assert (not (= x24 (_ bv9 8))))
(assert (not (= x24 (_ bv2 8))))
(assert (not (= x34 x44)))
(assert (not (= x34 x54)))
(assert (not (= x34 x64)))
(assert (not (= x34 (_ bv9 8))))
(assert (not (= x34 (_ bv2 8))))
(assert (not (= x44 x54)))
(assert (not (= x44 x64)))
(assert (not (= x44 (_ bv9 8))))
(assert (not (= x44 (_ bv2 8))))
(assert (not (= x54 x64)))
(assert (not (= x54 (_ bv9 8))))
(assert (not (= x54 (_ bv2 8))))
(assert (not (= x64 (_ bv9 8))))
(assert (not (= x64 (_ bv2 8))))
(assert (not (= (_ bv9 8) (_ bv2 8))))
(assert (not (= (_ bv8 8) x15)))
(assert (not (= (_ bv8 8) x25)))
(assert (not (= (_ bv8 8) x35)))
(assert (not (= (_ bv8 8) (_ bv5 8))))
(assert (not (= (_ bv8 8) (_ bv7 8))))
(assert (not (= (_ bv8 8) (_ bv6 8))))
(assert (not (= (_ bv8 8) x75)))
(assert (not (= (_ bv8 8) x85)))
(assert (not (= x15 x25)))
(assert (not (= x15 x35)))
(assert (not (= x15 (_ bv5 8))))
(assert (not (= x15 (_ bv7 8))))
(assert (not (= x15 (_ bv6 8))))
(assert (not (= x15 x75)))
(assert (not (= x15 x85)))
(assert (not (= x25 x35)))
(assert (not (= x25 (_ bv5 8))))
(assert (not (= x25 (_ bv7 8))))
(assert (not (= x25 (_ bv6 8))))
(assert (not (= x25 x75)))
(assert (not (= x25 x85)))
(assert (not (= x35 (_ bv5 8))))
(assert (not (= x35 (_ bv7 8))))
(assert (not (= x35 (_ bv6 8))))
(assert (not (= x35 x75)))
(assert (not (= x35 x85)))
(assert (not (= (_ bv5 8) (_ bv7 8))))
(assert (not (= (_ bv5 8) (_ bv6 8))))
(assert (not (= (_ bv5 8) x75)))
(assert (not (= (_ bv5 8) x85)))
(assert (not (= (_ bv7 8) (_ bv6 8))))
(assert (not (= (_ bv7 8) x75)))
(assert (not (= (_ bv7 8) x85)))
(assert (not (= (_ bv6 8) x75)))
(assert (not (= (_ bv6 8) x85)))
(assert (not (= x75 x85)))
(assert (not (= x06 (_ bv5 8))))
(assert (not (= x06 x26)))
(assert (not (= x06 x36)))
(assert (not (= x06 x46)))
(assert (not (= x06 x56)))
(assert (not (= x06 (_ bv4 8))))
(assert (not (= x06 x76)))
(assert (not (= x06 x86)))
(assert (not (= (_ bv5 8) x26)))
(assert (not (= (_ bv5 8) x36)))
(assert (not (= (_ bv5 8) x46)))
(assert (not (= (_ bv5 8) x56)))
(assert (not (= (_ bv5 8) (_ bv4 8))))
(assert (not (= (_ bv5 8) x76)))
(assert (not (= (_ bv5 8) x86)))
(assert (not (= x26 x36)))
(assert (not (= x26 x46)))
(assert (not (= x26 x56)))
(assert (not (= x26 (_ bv4 8))))
(assert (not (= x26 x76)))
(assert (not (= x26 x86)))
(assert (not (= x36 x46)))
(assert (not (= x36 x56)))
(assert (not (= x36 (_ bv4 8))))
(assert (not (= x36 x76)))
(assert (not (= x36 x86)))
(assert (not (= x46 x56)))
(assert (not (= x46 (_ bv4 8))))
(assert (not (= x46 x76)))
(assert (not (= x46 x86)))
(assert (not (= x56 (_ bv4 8))))
(assert (not (= x56 x76)))
(assert (not (= x56 x86)))
(assert (not (= (_ bv4 8) x76)))
(assert (not (= (_ bv4 8) x86)))
(assert (not (= x76 x86)))
(assert (not (= (_ bv1 8) x17)))
(assert (not (= (_ bv1 8) (_ bv4 8))))
(assert (not (= (_ bv1 8) (_ bv2 8))))
(assert (not (= (_ bv1 8) (_ bv3 8))))
(assert (not (= (_ bv1 8) x57)))
(assert (not (= (_ bv1 8) x67)))
(assert (not (= (_ bv1 8) x77)))
(assert (not (= (_ bv1 8) x87)))
(assert (not (= x17 (_ bv4 8))))
(assert (not (= x17 (_ bv2 8))))
(assert (not (= x17 (_ bv3 8))))
(assert (not (= x17 x57)))
(assert (not (= x17 x67)))
(assert (not (= x17 x77)))
(assert (not (= x17 x87)))
(assert (not (= (_ bv4 8) (_ bv2 8))))
(assert (not (= (_ bv4 8) (_ bv3 8))))
(assert (not (= (_ bv4 8) x57)))
(assert (not (= (_ bv4 8) x67)))
(assert (not (= (_ bv4 8) x77)))
(assert (not (= (_ bv4 8) x87)))
(assert (not (= (_ bv2 8) (_ bv3 8))))
(assert (not (= (_ bv2 8) x57)))
(assert (not (= (_ bv2 8) x67)))
(assert (not (= (_ bv2 8) x77)))
(assert (not (= (_ bv2 8) x87)))
(assert (not (= (_ bv3 8) x57)))
(assert (not (= (_ bv3 8) x67)))
(assert (not (= (_ bv3 8) x77)))
(assert (not (= (_ bv3 8) x87)))
(assert (not (= x57 x67)))
(assert (not (= x57 x77)))
(assert (not (= x57 x87)))
(assert (not (= x67 x77)))
(assert (not (= x67 x87)))
(assert (not (= x77 x87)))
(assert (not (= (_ bv7 8) (_ bv2 8))))
(assert (not (= (_ bv7 8) (_ bv9 8))))
(assert (not (= (_ bv7 8) x38)))
(assert (not (= (_ bv7 8) x48)))
(assert (not (= (_ bv7 8) (_ bv4 8))))
(assert (not (= (_ bv7 8) x68)))
(assert (not (= (_ bv7 8) x78)))
(assert (not (= (_ bv7 8) (_ bv6 8))))
(assert (not (= (_ bv2 8) (_ bv9 8))))
(assert (not (= (_ bv2 8) x38)))
(assert (not (= (_ bv2 8) x48)))
(assert (not (= (_ bv2 8) (_ bv4 8))))
(assert (not (= (_ bv2 8) x68)))
(assert (not (= (_ bv2 8) x78)))
(assert (not (= (_ bv2 8) (_ bv6 8))))
(assert (not (= (_ bv9 8) x38)))
(assert (not (= (_ bv9 8) x48)))
(assert (not (= (_ bv9 8) (_ bv4 8))))
(assert (not (= (_ bv9 8) x68)))
(assert (not (= (_ bv9 8) x78)))
(assert (not (= (_ bv9 8) (_ bv6 8))))
(assert (not (= x38 x48)))
(assert (not (= x38 (_ bv4 8))))
(assert (not (= x38 x68)))
(assert (not (= x38 x78)))
(assert (not (= x38 (_ bv6 8))))
(assert (not (= x48 (_ bv4 8))))
(assert (not (= x48 x68)))
(assert (not (= x48 x78)))
(assert (not (= x48 (_ bv6 8))))
(assert (not (= (_ bv4 8) x68)))
(assert (not (= (_ bv4 8) x78)))
(assert (not (= (_ bv4 8) (_ bv6 8))))
(assert (not (= x68 x78)))
(assert (not (= x68 (_ bv6 8))))
(assert (not (= x78 (_ bv6 8))))
(assert (not (= x00 x01)))
(assert (not (= x00 (_ bv4 8))))
(assert (not (= x00 x10)))
(assert (not (= x00 (_ bv6 8))))
(assert (not (= x00 (_ bv1 8))))
(assert (not (= x00 x20)))
(assert (not (= x00 x21)))
(assert (not (= x00 x22)))
(assert (not (= x01 (_ bv4 8))))
(assert (not (= x01 x10)))
(assert (not (= x01 (_ bv6 8))))
(assert (not (= x01 (_ bv1 8))))
(assert (not (= x01 x20)))
(assert (not (= x01 x21)))
(assert (not (= x01 x22)))
(assert (not (= (_ bv4 8) x10)))
(assert (not (= (_ bv4 8) (_ bv6 8))))
(assert (not (= (_ bv4 8) (_ bv1 8))))
(assert (not (= (_ bv4 8) x20)))
(assert (not (= (_ bv4 8) x21)))
(assert (not (= (_ bv4 8) x22)))
(assert (not (= x10 (_ bv6 8))))
(assert (not (= x10 (_ bv1 8))))
(assert (not (= x10 x20)))
(assert (not (= x10 x21)))
(assert (not (= x10 x22)))
(assert (not (= (_ bv6 8) (_ bv1 8))))
(assert (not (= (_ bv6 8) x20)))
(assert (not (= (_ bv6 8) x21)))
(assert (not (= (_ bv6 8) x22)))
(assert (not (= (_ bv1 8) x20)))
(assert (not (= (_ bv1 8) x21)))
(assert (not (= (_ bv1 8) x22)))
(assert (not (= x20 x21)))
(assert (not (= x20 x22)))
(assert (not (= x21 x22)))
(assert (not (= (_ bv6 8) x04)))
(assert (not (= (_ bv6 8) (_ bv8 8))))
(assert (not (= (_ bv6 8) x13)))
(assert (not (= (_ bv6 8) x14)))
(assert (not (= (_ bv6 8) x15)))
(assert (not (= (_ bv6 8) (_ bv3 8))))
(assert (not (= (_ bv6 8) x24)))
(assert (not (= (_ bv6 8) x25)))
(assert (not (= x04 (_ bv8 8))))
(assert (not (= x04 x13)))
(assert (not (= x04 x14)))
(assert (not (= x04 x15)))
(assert (not (= x04 (_ bv3 8))))
(assert (not (= x04 x24)))
(assert (not (= x04 x25)))
(assert (not (= (_ bv8 8) x13)))
(assert (not (= (_ bv8 8) x14)))
(assert (not (= (_ bv8 8) x15)))
(assert (not (= (_ bv8 8) (_ bv3 8))))
(assert (not (= (_ bv8 8) x24)))
(assert (not (= (_ bv8 8) x25)))
(assert (not (= x13 x14)))
(assert (not (= x13 x15)))
(assert (not (= x13 (_ bv3 8))))
(assert (not (= x13 x24)))
(assert (not (= x13 x25)))
(assert (not (= x14 x15)))
(assert (not (= x14 (_ bv3 8))))
(assert (not (= x14 x24)))
(assert (not (= x14 x25)))
(assert (not (= x15 (_ bv3 8))))
(assert (not (= x15 x24)))
(assert (not (= x15 x25)))
(assert (not (= (_ bv3 8) x24)))
(assert (not (= (_ bv3 8) x25)))
(assert (not (= x24 x25)))
(assert (not (= x06 (_ bv1 8))))
(assert (not (= x06 (_ bv7 8))))
(assert (not (= x06 (_ bv5 8))))
(assert (not (= x06 x17)))
(assert (not (= x06 (_ bv2 8))))
(assert (not (= x06 x26)))
(assert (not (= x06 (_ bv4 8))))
(assert (not (= x06 (_ bv9 8))))
(assert (not (= (_ bv1 8) (_ bv7 8))))
(assert (not (= (_ bv1 8) (_ bv5 8))))
(assert (not (= (_ bv1 8) x17)))
(assert (not (= (_ bv1 8) (_ bv2 8))))
(assert (not (= (_ bv1 8) x26)))
(assert (not (= (_ bv1 8) (_ bv4 8))))
(assert (not (= (_ bv1 8) (_ bv9 8))))
(assert (not (= (_ bv7 8) (_ bv5 8))))
(assert (not (= (_ bv7 8) x17)))
(assert (not (= (_ bv7 8) (_ bv2 8))))
(assert (not (= (_ bv7 8) x26)))
(assert (not (= (_ bv7 8) (_ bv4 8))))
(assert (not (= (_ bv7 8) (_ bv9 8))))
(assert (not (= (_ bv5 8) x17)))
(assert (not (= (_ bv5 8) (_ bv2 8))))
(assert (not (= (_ bv5 8) x26)))
(assert (not (= (_ bv5 8) (_ bv4 8))))
(assert (not (= (_ bv5 8) (_ bv9 8))))
(assert (not (= x17 (_ bv2 8))))
(assert (not (= x17 x26)))
(assert (not (= x17 (_ bv4 8))))
(assert (not (= x17 (_ bv9 8))))
(assert (not (= (_ bv2 8) x26)))
(assert (not (= (_ bv2 8) (_ bv4 8))))
(assert (not (= (_ bv2 8) (_ bv9 8))))
(assert (not (= x26 (_ bv4 8))))
(assert (not (= x26 (_ bv9 8))))
(assert (not (= (_ bv4 8) (_ bv9 8))))
(assert (not (= (_ bv8 8) (_ bv4 8))))
(assert (not (= (_ bv8 8) (_ bv7 8))))
(assert (not (= (_ bv8 8) x40)))
(assert (not (= (_ bv8 8) x41)))
(assert (not (= (_ bv8 8) x42)))
(assert (not (= (_ bv8 8) (_ bv5 8))))
(assert (not (= (_ bv8 8) x51)))
(assert (not (= (_ bv8 8) (_ bv2 8))))
(assert (not (= (_ bv4 8) (_ bv7 8))))
(assert (not (= (_ bv4 8) x40)))
(assert (not (= (_ bv4 8) x41)))
(assert (not (= (_ bv4 8) x42)))
(assert (not (= (_ bv4 8) (_ bv5 8))))
(assert (not (= (_ bv4 8) x51)))
(assert (not (= (_ bv4 8) (_ bv2 8))))
(assert (not (= (_ bv7 8) x40)))
(assert (not (= (_ bv7 8) x41)))
(assert (not (= (_ bv7 8) x42)))
(assert (not (= (_ bv7 8) (_ bv5 8))))
(assert (not (= (_ bv7 8) x51)))
(assert (not (= (_ bv7 8) (_ bv2 8))))
(assert (not (= x40 x41)))
(assert (not (= x40 x42)))
(assert (not (= x40 (_ bv5 8))))
(assert (not (= x40 x51)))
(assert (not (= x40 (_ bv2 8))))
(assert (not (= x41 x42)))
(assert (not (= x41 (_ bv5 8))))
(assert (not (= x41 x51)))
(assert (not (= x41 (_ bv2 8))))
(assert (not (= x42 (_ bv5 8))))
(assert (not (= x42 x51)))
(assert (not (= x42 (_ bv2 8))))
(assert (not (= (_ bv5 8) x51)))
(assert (not (= (_ bv5 8) (_ bv2 8))))
(assert (not (= x51 (_ bv2 8))))
(assert (not (= x33 x34)))
(assert (not (= x33 x35)))
(assert (not (= x33 x43)))
(assert (not (= x33 x44)))
(assert (not (= x33 (_ bv5 8))))
(assert (not (= x33 (_ bv1 8))))
(assert (not (= x33 x54)))
(assert (not (= x33 (_ bv7 8))))
(assert (not (= x34 x35)))
(assert (not (= x34 x43)))
(assert (not (= x34 x44)))
(assert (not (= x34 (_ bv5 8))))
(assert (not (= x34 (_ bv1 8))))
(assert (not (= x34 x54)))
(assert (not (= x34 (_ bv7 8))))
(assert (not (= x35 x43)))
(assert (not (= x35 x44)))
(assert (not (= x35 (_ bv5 8))))
(assert (not (= x35 (_ bv1 8))))
(assert (not (= x35 x54)))
(assert (not (= x35 (_ bv7 8))))
(assert (not (= x43 x44)))
(assert (not (= x43 (_ bv5 8))))
(assert (not (= x43 (_ bv1 8))))
(assert (not (= x43 x54)))
(assert (not (= x43 (_ bv7 8))))
(assert (not (= x44 (_ bv5 8))))
(assert (not (= x44 (_ bv1 8))))
(assert (not (= x44 x54)))
(assert (not (= x44 (_ bv7 8))))
(assert (not (= (_ bv5 8) (_ bv1 8))))
(assert (not (= (_ bv5 8) x54)))
(assert (not (= (_ bv5 8) (_ bv7 8))))
(assert (not (= (_ bv1 8) x54)))
(assert (not (= (_ bv1 8) (_ bv7 8))))
(assert (not (= x54 (_ bv7 8))))
(assert (not (= x36 (_ bv2 8))))
(assert (not (= x36 x38)))
(assert (not (= x36 x46)))
(assert (not (= x36 (_ bv3 8))))
(assert (not (= x36 x48)))
(assert (not (= x36 x56)))
(assert (not (= x36 x57)))
(assert (not (= x36 (_ bv4 8))))
(assert (not (= (_ bv2 8) x38)))
(assert (not (= (_ bv2 8) x46)))
(assert (not (= (_ bv2 8) (_ bv3 8))))
(assert (not (= (_ bv2 8) x48)))
(assert (not (= (_ bv2 8) x56)))
(assert (not (= (_ bv2 8) x57)))
(assert (not (= (_ bv2 8) (_ bv4 8))))
(assert (not (= x38 x46)))
(assert (not (= x38 (_ bv3 8))))
(assert (not (= x38 x48)))
(assert (not (= x38 x56)))
(assert (not (= x38 x57)))
(assert (not (= x38 (_ bv4 8))))
(assert (not (= x46 (_ bv3 8))))
(assert (not (= x46 x48)))
(assert (not (= x46 x56)))
(assert (not (= x46 x57)))
(assert (not (= x46 (_ bv4 8))))
(assert (not (= (_ bv3 8) x48)))
(assert (not (= (_ bv3 8) x56)))
(assert (not (= (_ bv3 8) x57)))
(assert (not (= (_ bv3 8) (_ bv4 8))))
(assert (not (= x48 x56)))
(assert (not (= x48 x57)))
(assert (not (= x48 (_ bv4 8))))
(assert (not (= x56 x57)))
(assert (not (= x56 (_ bv4 8))))
(assert (not (= x57 (_ bv4 8))))
(assert (not (= x60 (_ bv9 8))))
(assert (not (= x60 (_ bv8 8))))
(assert (not (= x60 (_ bv1 8))))
(assert (not (= x60 (_ bv5 8))))
(assert (not (= x60 x72)))
(assert (not (= x60 x80)))
(assert (not (= x60 x81)))
(assert (not (= x60 x82)))
(assert (not (= (_ bv9 8) (_ bv8 8))))
(assert (not (= (_ bv9 8) (_ bv1 8))))
(assert (not (= (_ bv9 8) (_ bv5 8))))
(assert (not (= (_ bv9 8) x72)))
(assert (not (= (_ bv9 8) x80)))
(assert (not (= (_ bv9 8) x81)))
(assert (not (= (_ bv9 8) x82)))
(assert (not (= (_ bv8 8) (_ bv1 8))))
(assert (not (= (_ bv8 8) (_ bv5 8))))
(assert (not (= (_ bv8 8) x72)))
(assert (not (= (_ bv8 8) x80)))
(assert (not (= (_ bv8 8) x81)))
(assert (not (= (_ bv8 8) x82)))
(assert (not (= (_ bv1 8) (_ bv5 8))))
(assert (not (= (_ bv1 8) x72)))
(assert (not (= (_ bv1 8) x80)))
(assert (not (= (_ bv1 8) x81)))
(assert (not (= (_ bv1 8) x82)))
(assert (not (= (_ bv5 8) x72)))
(assert (not (= (_ bv5 8) x80)))
(assert (not (= (_ bv5 8) x81)))
(assert (not (= (_ bv5 8) x82)))
(assert (not (= x72 x80)))
(assert (not (= x72 x81)))
(assert (not (= x72 x82)))
(assert (not (= x80 x81)))
(assert (not (= x80 x82)))
(assert (not (= x81 x82)))
(assert (not (= (_ bv7 8) x64)))
(assert (not (= (_ bv7 8) (_ bv6 8))))
(assert (not (= (_ bv7 8) (_ bv8 8))))
(assert (not (= (_ bv7 8) (_ bv9 8))))
(assert (not (= (_ bv7 8) x75)))
(assert (not (= (_ bv7 8) x83)))
(assert (not (= (_ bv7 8) (_ bv2 8))))
(assert (not (= (_ bv7 8) x85)))
(assert (not (= x64 (_ bv6 8))))
(assert (not (= x64 (_ bv8 8))))
(assert (not (= x64 (_ bv9 8))))
(assert (not (= x64 x75)))
(assert (not (= x64 x83)))
(assert (not (= x64 (_ bv2 8))))
(assert (not (= x64 x85)))
(assert (not (= (_ bv6 8) (_ bv8 8))))
(assert (not (= (_ bv6 8) (_ bv9 8))))
(assert (not (= (_ bv6 8) x75)))
(assert (not (= (_ bv6 8) x83)))
(assert (not (= (_ bv6 8) (_ bv2 8))))
(assert (not (= (_ bv6 8) x85)))
(assert (not (= (_ bv8 8) (_ bv9 8))))
(assert (not (= (_ bv8 8) x75)))
(assert (not (= (_ bv8 8) x83)))
(assert (not (= (_ bv8 8) (_ bv2 8))))
(assert (not (= (_ bv8 8) x85)))
(assert (not (= (_ bv9 8) x75)))
(assert (not (= (_ bv9 8) x83)))
(assert (not (= (_ bv9 8) (_ bv2 8))))
(assert (not (= (_ bv9 8) x85)))
(assert (not (= x75 x83)))
(assert (not (= x75 (_ bv2 8))))
(assert (not (= x75 x85)))
(assert (not (= x83 (_ bv2 8))))
(assert (not (= x83 x85)))
(assert (not (= (_ bv2 8) x85)))
(assert (not (= (_ bv4 8) x67)))
(assert (not (= (_ bv4 8) x68)))
(assert (not (= (_ bv4 8) x76)))
(assert (not (= (_ bv4 8) x77)))
(assert (not (= (_ bv4 8) x78)))
(assert (not (= (_ bv4 8) x86)))
(assert (not (= (_ bv4 8) x87)))
(assert (not (= (_ bv4 8) (_ bv6 8))))
(assert (not (= x67 x68)))
(assert (not (= x67 x76)))
(assert (not (= x67 x77)))
(assert (not (= x67 x78)))
(assert (not (= x67 x86)))
(assert (not (= x67 x87)))
(assert (not (= x67 (_ bv6 8))))
(assert (not (= x68 x76)))
(assert (not (= x68 x77)))
(assert (not (= x68 x78)))
(assert (not (= x68 x86)))
(assert (not (= x68 x87)))
(assert (not (= x68 (_ bv6 8))))
(assert (not (= x76 x77)))
(assert (not (= x76 x78)))
(assert (not (= x76 x86)))
(assert (not (= x76 x87)))
(assert (not (= x76 (_ bv6 8))))
(assert (not (= x77 x78)))
(assert (not (= x77 x86)))
(assert (not (= x77 x87)))
(assert (not (= x77 (_ bv6 8))))
(assert (not (= x78 x86)))
(assert (not (= x78 x87)))
(assert (not (= x78 (_ bv6 8))))
(assert (not (= x86 x87)))
(assert (not (= x86 (_ bv6 8))))
(assert (not (= x87 (_ bv6 8))))
(check-sat)
(exit)
